;(set-option :produce-unsat-cores true )
(set-logic ALL_SUPPORTED )
(declare-sort Nat$ 0 )
(declare-sort Ref$ 0 )
(declare-sort Nat_bool_fun$ 0 )
(declare-sort Nat_nat_bool_fun_fun$ 0 )
(declare-sort Dag$ 0)
(declare-fun tip$ ()Dag$)
(declare-fun select$ (Dag$)Dag$)
(declare-fun selecta$ (Dag$)Ref$)
(declare-fun selectb$ (Dag$)Dag$)
(declare-fun node$ (Dag$ Ref$ Dag$ )Dag$)
(declare-fun p$ ()Bool )
(declare-fun s$ ()Dag$ )
(declare-fun t$ ()Dag$ )
(declare-fun dag$ (Dag$ )Bool )
(declare-fun less$ (Nat$ Nat$ )Bool )
(declare-fun size$ (Dag$ )Nat$ )
(declare-fun zero$ ()Nat$ )
(declare-fun subdag$ (Dag$ Dag$ )Bool )
(declare-fun fun_app$ (Nat_bool_fun$ Nat$ )Bool )
(declare-fun fun_app$a (Nat_nat_bool_fun_fun$ Nat$ )Nat_bool_fun$ )
(assert (! (not p$ ):named a0 ))
(assert (! (subdag$ s$ t$ ):named a1 ))
(assert (! (subdag$ t$ s$ ):named a2 ))
(assert (! (forall ((?v0 Dag$ )(?v1 Dag$ )(?v2 Dag$ ))(=> (and (subdag$ ?v0 ?v1 )(subdag$ ?v1 ?v2 ))(subdag$ ?v0 ?v2 ))):named a3 ))
(assert (! (forall ((?v0 Dag$ )(?v1 Dag$ ))(=> (subdag$ ?v0 ?v1 )(not (= ?v0 ?v1 )))):named a4 ))
(assert (! (forall ((?v0 Dag$ ))(! (= (subdag$ tip$ ?v0 )false ):pattern ((subdag$ tip$ ?v0 )))):named a5 ))
(assert (! (forall ((?v0 Dag$ )(?v1 Ref$ )(?v2 Dag$ )(?v3 Dag$ ))(! (= (subdag$ (node$ ?v0 ?v1 ?v2 )?v3 )(or (= ?v3 ?v0 )(or (= ?v3 ?v2 )(or (subdag$ ?v0 ?v3 )(subdag$ ?v2 ?v3 ))))):pattern ((subdag$ (node$ ?v0 ?v1 ?v2 )?v3 )))):named a6 ))
(assert (! (forall ((?v0 Dag$ )(?v1 Dag$ )(?v2 Ref$ )(?v3 Dag$ ))(=> (subdag$ ?v0 (node$ ?v1 ?v2 ?v3 ))(and (subdag$ ?v0 ?v1 )(subdag$ ?v0 ?v3 )))):named a7 ))
(assert (! (forall ((?v0 Dag$ )(?v1 Dag$ ))(=> (subdag$ ?v0 ?v1 )(less$ (size$ ?v1 )(size$ ?v0 )))):named a8 ))
(assert (! (forall ((?v0 Dag$ )(?v1 Ref$ )(?v2 Dag$ )(?v3 Dag$ )(?v4 Ref$ )(?v5 Dag$ ))(= (= (node$ ?v0 ?v1 ?v2 )(node$ ?v3 ?v4 ?v5 ))(and (= ?v0 ?v3 )(and (= ?v1 ?v4 )(= ?v2 ?v5 ))))):named a9 ))
(assert (! (forall ((?v0 Dag$ ))(=> (and (=> (= ?v0 tip$ )false )(forall ((?v1 Dag$ )(?v2 Ref$ )(?v3 Dag$ ))(=> (= ?v0 (node$ ?v1 ?v2 ?v3 ))false )))false )):named a10 ))
(assert (! (forall ((?v0 Dag$ )(?v1 Ref$ )(?v2 Dag$ ))(not (= tip$ (node$ ?v0 ?v1 ?v2 )))):named a11 ))
(assert (! (= (dag$ tip$ )true ):named a12 ))
(assert (! (= (size$ tip$ )zero$ ):named a13 ))
(assert (! (forall ((?v0 Dag$ )(?v1 Dag$ ))(=> (not (= (size$ ?v0 )(size$ ?v1 )))(not (= ?v0 ?v1 )))):named a14 ))
(assert (! (forall ((?v0 Nat$ )(?v1 Nat$ ))(= (not (= ?v0 ?v1 ))(or (less$ ?v0 ?v1 )(less$ ?v1 ?v0 )))):named a15 ))
(assert (! (forall ((?v0 Nat$ )(?v1 Nat$ )(?v2 Nat_nat_bool_fun_fun$ ))(=> (and (=> (less$ ?v0 ?v1 )(fun_app$ (fun_app$a ?v2 ?v1 )?v0 ))(and (=> (= ?v0 ?v1 )(fun_app$ (fun_app$a ?v2 ?v1 )?v0 ))(=> (less$ ?v1 ?v0 )(fun_app$ (fun_app$a ?v2 ?v1 )?v0 ))))(fun_app$ (fun_app$a ?v2 ?v1 )?v0 ))):named a16 ))
(check-sat )
;(get-unsat-core )
